(set-logic QF_S)
(set-option :strings-exp true)
(set-option :produce-models true)
(declare-fun sigmaStar_0 () String)
(declare-fun literal_3 () String)
(assert (= literal_3 "\x65\x64\x69\x74\x3c\x2f\x61\x3e\x3c\x2f\x70\x3e"))
(assert (str.in.re literal_3 (re.++ (re.* re.allchar) (re.++ (str.to.re "\x5c\x3c\x53\x43\x52\x49\x50\x54") (re.* re.allchar)))))
(check-sat)
(get-model)
